p edge 123 598
1 2
1 15
1 28
1 55
1 82
2 3
2 66
2 89
2 99
2 5
3 4
3 115
3 57
3 5
3 69
4 113
4 19
4 5
4 39
4 61
5 95
5 6
5 118
5 111
6 78
6 7
6 5
6 58
6 76
7 8
7 65
7 38
7 64
7 75
8 11
8 96
8 9
8 4
8 54
9 93
9 108
9 95
9 7
9 10
10 61
10 82
10 33
10 11
10 31
11 58
11 84
11 12
11 75
11 41
12 13
12 23
12 78
12 21
12 108
13 108
13 14
13 85
13 32
13 20
14 15
14 88
14 100
14 103
14 32
15 14
15 16
15 1
15 118
16 14
16 17
16 28
16 104
16 53
17 18
17 80
17 45
17 44
17 104
18 43
18 19
18 14
18 102
18 1
19 71
19 56
19 20
19 45
20 116
20 21
20 61
20 73
20 121
21 52
21 49
21 58
21 76
21 22
22 43
22 104
22 23
22 80
22 85
23 24
23 49
23 25
23 92
23 64
24 75
24 11
24 25
24 9
24 115
25 33
25 14
25 17
25 5
25 26
26 51
26 27
26 5
26 35
26 77
27 39
27 28
27 40
27 103
27 110
28 32
28 43
28 104
28 82
28 29
29 120
29 30
29 12
29 49
29 38
30 48
30 75
30 7
30 101
30 31
31 44
31 76
31 32
31 3
32 33
32 62
32 26
32 47
32 86
33 23
33 25
33 116
33 34
33 63
34 116
34 35
34 98
34 14
34 24
35 81
35 114
35 36
35 82
35 23
36 37
36 91
36 72
36 99
36 81
37 77
37 101
37 72
37 38
37 52
38 22
38 67
38 98
38 29
38 39
39 40
39 22
39 118
39 6
39 62
40 120
40 39
40 24
40 58
40 41
41 17
41 85
41 27
41 68
41 42
42 33
42 102
42 65
42 43
42 12
43 44
43 104
43 27
43 74
43 11
44 37
44 56
44 91
44 86
44 45
45 2
45 110
45 46
45 30
45 7
46 117
46 57
46 80
46 47
46 97
47 48
47 89
47 56
47 70
47 92
48 8
48 90
48 49
48 6
49 20
49 120
49 50
49 44
49 41
50 4
50 25
50 33
50 73
50 51
51 38
51 104
51 72
51 12
51 52
52 53
52 112
52 87
52 44
53 54
53 11
53 109
53 28
53 107
54 100
54 96
54 16
54 55
54 68
55 50
55 10
55 56
55 19
55 72
56 81
56 116
56 57
56 58
56 47
57 15
57 29
57 40
57 94
57 58
58 81
58 70
58 21
58 59
58 83
59 123
59 60
59 115
59 91
59 33
60 76
60 13
60 61
60 99
60 38
61 62
61 21
61 116
61 106
61 122
62 116
62 63
62 75
62 84
62 96
63 110
63 64
63 74
63 7
63 50
64 32
64 57
64 65
64 84
64 88
65 59
65 116
65 118
65 66
65 23
66 117
66 30
66 67
66 102
67 68
67 54
67 50
67 122
68 34
68 84
68 98
68 69
69 117
69 70
69 58
69 50
69 13
70 96
70 121
70 71
70 91
70 72
71 80
71 37
71 72
71 100
71 70
72 47
72 40
72 82
72 44
72 73
73 74
73 68
73 9
73 61
73 18
74 104
74 13
74 78
74 75
74 50
75 76
75 85
75 67
75 112
75 5
76 48
76 54
76 77
76 52
76 5
77 43
77 78
77 51
77 6
77 87
78 60
78 39
78 118
78 79
78 41
79 40
79 80
79 116
79 122
79 109
80 81
80 4
80 93
80 100
80 21
81 116
81 52
81 82
81 118
81 94
82 83
82 110
82 48
82 107
82 33
83 84
83 23
83 26
83 35
83 85
84 100
84 93
84 70
84 85
84 16
85 47
85 8
85 62
85 84
85 86
86 64
86 87
86 26
86 94
86 39
87 11
87 40
87 88
87 81
88 89
88 118
88 30
88 80
89 90
89 49
89 52
89 13
89 36
90 2
90 92
90 91
90 12
91 121
91 115
91 92
91 17
91 62
92 53
92 17
92 93
92 39
92 117
93 84
93 97
93 110
93 69
93 94
94 54
94 76
94 95
94 31
94 49
95 33
95 23
95 96
95 69
95 49
96 108
96 64
96 94
96 97
96 70
97 98
97 64
97 110
97 38
98 119
98 60
98 99
98 23
98 109
99 77
99 113
99 37
99 100
99 53
100 97
100 57
100 74
100 39
100 101
101 110
101 98
101 102
101 52
101 71
102 103
102 2
102 48
102 31
102 54
103 66
103 104
103 32
103 54
103 14
104 105
104 26
104 107
104 118
104 62
105 5
105 67
105 45
105 36
105 106
106 64
106 9
106 107
106 5
106 92
107 108
107 117
107 42
107 121
108 71
108 109
108 86
108 82
108 100
109 110
109 98
109 12
109 51
109 1
110 37
110 103
110 54
110 111
110 50
111 78
111 16
111 88
111 112
112 11
112 102
112 113
112 118
112 73
113 28
113 98
113 76
113 109
113 114
114 83
114 115
114 121
114 73
114 64
115 63
115 72
115 76
115 98
115 116
116 53
116 117
116 54
116 74
116 6
117 118
117 14
117 46
117 25
117 78
118 119
118 34
118 108
118 67
119 120
119 7
119 101
119 104
119 92
120 54
120 57
120 55
120 121
120 10
121 54
121 122
121 60
121 24
121 75
122 111
122 41
122 88
122 123
122 16
123 104
123 71
123 1
123 44
